p cnf 10 50
-1 5 -6 0
-3 9 -8 0
7 -10 5 0
4 -9 5 0
8 -5 3 0
-6 10 3 0
-10 9 5 0
6 4 2 0
-6 -3 8 0
9 -5 3 0
6 7 -3 0
9 -8 -2 0
9 10 1 0
-1 -4 -6 0
8 1 -7 0
7 -6 -2 0
2 7 10 0
9 5 -7 0
-10 4 9 0
10 -5 2 0
3 -8 2 0
-3 -9 -4 0
3 5 -1 0
-2 7 5 0
-10 -1 5 0
-4 -6 -3 0
1 2 5 0
7 8 -9 0
3 -5 10 0
5 -8 -2 0
6 3 -1 0
5 -8 3 0
2 4 -5 0
-2 -4 -9 0
6 -9 1 0
-7 6 8 0
-4 -7 8 0
8 5 -10 0
-8 6 -7 0
-7 -9 4 0
9 -4 10 0
7 9 -5 0
6 -1 -4 0
-5 3 -10 0
-7 -9 -8 0
-1 -2 -6 0
7 8 -10 0
1 6 -8 0
5 -4 -10 0
1 -6 -2 0
